
Gurobi 11.0.3 (linux64) logging started Thu Nov 21 23:28:04 2024

Set parameter LogFile to value "/home/yihong/Coding/OR_SUC/SUC_results_bigM100000_thread4/case24_ieee_rts_theta0.5_epsilon0.05_gurobi_seed930000_num_gen100_N_WDR100_load_scaling_factor1_proposed_T16quadra_cost.txt"
Set parameter TimeLimit to value 3600
Gurobi Optimizer version 11.0.3 build v11.0.3rc0 (linux64 - "Ubuntu 20.04.6 LTS")

CPU model: AMD EPYC 7532 32-Core Processor, instruction set [SSE2|AVX|AVX2]
Thread count: 64 physical cores, 128 logical processors, using up to 4 threads

Optimize a model with 38206 rows, 19941 columns and 876666 nonzeros
Model fingerprint: 0x54a65f7d
Model has 1600 quadratic constraints
Variable types: 18341 continuous, 1600 integer (1600 binary)
Coefficient statistics:
  Matrix range     [3e-04, 2e+03]
  QMatrix range    [2e-03, 8e-03]
  QLMatrix range   [1e-01, 6e+01]
  Objective range  [1e+00, 1e+00]
  Bounds range     [1e+00, 1e+00]
  RHS range        [1e+00, 9e+03]
Presolve removed 31268 rows and 8500 columns
Presolve time: 0.26s
Presolved: 6938 rows, 11441 columns, 39344 nonzeros
Presolved model has 1600 quadratic constraint(s)
Variable types: 9841 continuous, 1600 integer (1600 binary)

Root relaxation: objective 3.501191e+04, 5555 iterations, 0.13 seconds (0.19 work units)

    Nodes    |    Current Node    |     Objective Bounds      |     Work
 Expl Unexpl |  Obj  Depth IntInf | Incumbent    BestBd   Gap | It/Node Time

     0     0 35011.9087    0   16          - 35011.9087      -     -    0s
     0     0 277089.479    0  450          - 277089.479      -     -    0s
     0     0 469383.158    0  379          - 469383.158      -     -    1s
     0     0 469414.632    0  323          - 469414.632      -     -    1s
     0     0 469573.862    0  280          - 469573.862      -     -    1s
     0     0 469574.335    0  280          - 469574.335      -     -    1s
     0     0 469574.871    0  280          - 469574.871      -     -    1s
     0     0 469575.317    0  280          - 469575.317      -     -    1s
     0     2 469575.340    0  280          - 469575.340      -     -    2s
H  176   347                    469727.71024 469582.544  0.03%  24.0    3s
*  176   347              76    469727.71024 469582.544  0.03%  24.0    3s

Cutting planes:
  Gomory: 9
  Implied bound: 298
  MIR: 78
  Flow cover: 66
  RLT: 4

Explored 386 nodes (21497 simplex iterations) in 3.46 seconds (4.05 work units)
Thread count was 4 (of 128 available processors)

Solution count 2: 469728 469728 

Optimal solution found (tolerance 1.00e-03)
Warning: max constraint violation (2.1146e-07) exceeds tolerance
Best objective 4.697277102437e+05, best bound 4.695855629136e+05, gap 0.0303%
